x = 20;
y = 10;
c = 73;
n = 31;

p = [63  59  79  37  88  82  76  70  81  69  45  65  13  50  40  60  96  66  78  26  36  80  60  100  41  48  89  29  30  20  82];
w = [10  2  9  4  3  3  6  3  4  8  4  9  7  2  9  5  10  9  5  6  10  8  7  1  9  3  9  6  5  2  7];
s = [2  7  8  4  8  4  4  8  3  3  5  6  3  9  5  8  1  3  5  3  2  8  3  6  7  7  3  7  3  10  8];
